GeneratedTests/Random_12/Random_12_7.tsp
NAME: Random_12_7
TYPE: TSP
DIMENSION: 12
EDGE_WEIGHT_TYPE: EUC_2D
NODE_COORD_SECTION
1 22.096992 24.578472
2 15.813352 24.265572
3 1.4356878 31.163801
4 35.66672 28.602623
5 4.5077486 31.627602
6 3.1132894 8.546196
7 17.675573 22.920454
8 13.796549 27.305862
9 8.538334 34.84998
10 26.672977 1.4384344
11 31.715967 11.587806
12 31.186459 27.790108
EOF
