GeneratedTests/Random_12/Random_12_7.txt
NAME: Random_12_7
TYPE: TSP
DIMENSION: 12
EDGE_WEIGHT_TYPE: EUC_2D
NODE_COORD_SECTION
1 3.1552134 10.33824
2 34.09611 15.612662
3 26.118462 1.7050416
4 29.042753 23.12821
5 28.905334 1.7908015
6 18.456066 22.04105
7 2.6833935 24.970243
8 6.138263 30.86485
9 10.043135 31.783104
10 8.608464 35.269257
11 5.4465494 16.40235
12 19.173561 26.514633
EOF
